%BLOCK LATTICE_ABC
4.833400  4.833400   5.345000
90.000000  90.000000   120.000000
%ENDBLOCK LATTICE_ABC

%BLOCK POSITIONS_ABS
Si   2.241470   -0.000000   1.781667
Si   -1.120735   1.941170   3.563333
Si   1.295965   2.244677   5.345000
O   1.298954   1.167094   1.202598
O   3.173192   0.541377   2.984269
O   2.777960   2.477373   4.765933
O   -1.117750   3.018753   2.360731
O   0.756488   3.644471   0.579067
O   0.361256   1.708474   4.142402
%ENDBLOCK POSITIONS_ABS

%BLOCK IONIC_CONSTRAINTS
%ENDBLOCK IONIC_CONSTRAINTS

KPOINTS_MP_SPACING 0.05

FIX_ALL_CELL : TRUE

FIX_COM : FALSE

SYMMETRY_GENERATE
