phon nofreq
cell
# Non-primitive lattice parameters :
4.206046 4.206046 4.206046 90.00000000 90.00000000 90.00000000
fractional 1
# Fractional coordinates of asymmetric unit :
Mg core 0.000000000 0.000000000 0.000000000 1.5800000 1.0000 0.000000
O core 0.500000000 0.500000000 0.500000000 0.5130000 1.0000 0.000000
Mg shel 0.000000000 0.000000000 0.000000000 0.4200000 1.0000 0.000000
O shel 0.500000000 0.500000000 0.500000000 -2.5129999 1.0000 0.000000
space
225
# Non-primitive unit cell  = [2/2]
totalenergy -163.9814387900 eV
species 4
Mg core 1.580000
Mg shel 0.420000
O core 0.513000
O shel -2.513000
# General interatomic potentials :
buck
O shel Mg shel 2457.24300 0.261000 0.000000 0.00 10.00
buck
O shel O shel 25.4100000 0.693700 32.32000 0.00 12.00
spring
Mg 349.95000
spring
O 20.530000

shrink 30
broaden_dos 0.2
box density size 1
output phonon DOS
