opti prop conp
cell
4.212000 4.212000 4.212000 90.000000 90.000000 90.000000
fractional
Mg core 0.000000 0.000000 0.000000
Mg shel 0.000000 0.000000 0.000000
O core 0.500000 0.500000 0.500000
O shel 0.500000 0.500000 0.500000
space
225
library bush.lib
dump MgO-opt.grs
