md conv conse qok nomod pres spat pot efg noauto 
ensemble nve

temperature 60.000000 K

equilibration 1 ps
timestep 1 fs
production 5 ps
write 100
sample 100


title
GULP calculation from Materials Studio for Ar_rho=0.0207125_N=512_cubic_60
end


cell
29.130000 29.130000 29.130000 90.000000 90.000000 90.000000

fractional
Ar1 core 0.000000 0.000000 0.000000 0.000000 1.000000 0.0 1 1 1
Ar1 core 0.000000 0.000000 0.124991 0.000000 1.000000 0.0 1 1 1
Ar1 core 0.000000 0.000000 0.250017 0.000000 1.000000 0.0 1 1 1
Ar1 core 0.000000 0.000000 0.375009 0.000000 1.000000 0.0 1 1 1
Ar1 core 0.000000 0.000000 0.500000 0.000000 1.000000 0.0 1 1 1
Ar1 core 0.000000 0.000000 0.624991 0.000000 1.000000 0.0 1 1 1
Ar1 core 0.000000 0.000000 0.750017 0.000000 1.000000 0.0 1 1 1
Ar1 core 0.000000 0.000000 0.875009 0.000000 1.000000 0.0 1 1 1
Ar1 core 0.000000 0.124991 0.000000 0.000000 1.000000 0.0 1 1 1
Ar1 core 0.000000 0.124991 0.124991 0.000000 1.000000 0.0 1 1 1
Ar1 core 0.000000 0.124991 0.250017 0.000000 1.000000 0.0 1 1 1
Ar1 core 0.000000 0.124991 0.375009 0.000000 1.000000 0.0 1 1 1
Ar1 core 0.000000 0.124991 0.500000 0.000000 1.000000 0.0 1 1 1
Ar1 core 0.000000 0.124991 0.624991 0.000000 1.000000 0.0 1 1 1
Ar1 core 0.000000 0.124991 0.750017 0.000000 1.000000 0.0 1 1 1
Ar1 core 0.000000 0.124991 0.875009 0.000000 1.000000 0.0 1 1 1
Ar1 core 0.000000 0.250017 0.000000 0.000000 1.000000 0.0 1 1 1
Ar1 core 0.000000 0.250017 0.124991 0.000000 1.000000 0.0 1 1 1
Ar1 core 0.000000 0.250017 0.250017 0.000000 1.000000 0.0 1 1 1
Ar1 core 0.000000 0.250017 0.375009 0.000000 1.000000 0.0 1 1 1
Ar1 core 0.000000 0.250017 0.500000 0.000000 1.000000 0.0 1 1 1
Ar1 core 0.000000 0.250017 0.624991 0.000000 1.000000 0.0 1 1 1
Ar1 core 0.000000 0.250017 0.750017 0.000000 1.000000 0.0 1 1 1
Ar1 core 0.000000 0.250017 0.875009 0.000000 1.000000 0.0 1 1 1
Ar1 core 0.000000 0.375009 0.000000 0.000000 1.000000 0.0 1 1 1
Ar1 core 0.000000 0.375009 0.124991 0.000000 1.000000 0.0 1 1 1
Ar1 core 0.000000 0.375009 0.250017 0.000000 1.000000 0.0 1 1 1
Ar1 core 0.000000 0.375009 0.375009 0.000000 1.000000 0.0 1 1 1
Ar1 core 0.000000 0.375009 0.500000 0.000000 1.000000 0.0 1 1 1
Ar1 core 0.000000 0.375009 0.624991 0.000000 1.000000 0.0 1 1 1
Ar1 core 0.000000 0.375009 0.750017 0.000000 1.000000 0.0 1 1 1
Ar1 core 0.000000 0.375009 0.875009 0.000000 1.000000 0.0 1 1 1
Ar1 core 0.000000 0.500000 0.000000 0.000000 1.000000 0.0 1 1 1
Ar1 core 0.000000 0.500000 0.124991 0.000000 1.000000 0.0 1 1 1
Ar1 core 0.000000 0.500000 0.250017 0.000000 1.000000 0.0 1 1 1
Ar1 core 0.000000 0.500000 0.375009 0.000000 1.000000 0.0 1 1 1
Ar1 core 0.000000 0.500000 0.500000 0.000000 1.000000 0.0 1 1 1
Ar1 core 0.000000 0.500000 0.624991 0.000000 1.000000 0.0 1 1 1
Ar1 core 0.000000 0.500000 0.750017 0.000000 1.000000 0.0 1 1 1
Ar1 core 0.000000 0.500000 0.875009 0.000000 1.000000 0.0 1 1 1
Ar1 core 0.000000 0.624991 0.000000 0.000000 1.000000 0.0 1 1 1
Ar1 core 0.000000 0.624991 0.124991 0.000000 1.000000 0.0 1 1 1
Ar1 core 0.000000 0.624991 0.250017 0.000000 1.000000 0.0 1 1 1
Ar1 core 0.000000 0.624991 0.375009 0.000000 1.000000 0.0 1 1 1
Ar1 core 0.000000 0.624991 0.500000 0.000000 1.000000 0.0 1 1 1
Ar1 core 0.000000 0.624991 0.624991 0.000000 1.000000 0.0 1 1 1
Ar1 core 0.000000 0.624991 0.750017 0.000000 1.000000 0.0 1 1 1
Ar1 core 0.000000 0.624991 0.875009 0.000000 1.000000 0.0 1 1 1
Ar1 core 0.000000 0.750017 0.000000 0.000000 1.000000 0.0 1 1 1
Ar1 core 0.000000 0.750017 0.124991 0.000000 1.000000 0.0 1 1 1
Ar1 core 0.000000 0.750017 0.250017 0.000000 1.000000 0.0 1 1 1
Ar1 core 0.000000 0.750017 0.375009 0.000000 1.000000 0.0 1 1 1
Ar1 core 0.000000 0.750017 0.500000 0.000000 1.000000 0.0 1 1 1
Ar1 core 0.000000 0.750017 0.624991 0.000000 1.000000 0.0 1 1 1
Ar1 core 0.000000 0.750017 0.750017 0.000000 1.000000 0.0 1 1 1
Ar1 core 0.000000 0.750017 0.875009 0.000000 1.000000 0.0 1 1 1
Ar1 core 0.000000 0.875009 0.000000 0.000000 1.000000 0.0 1 1 1
Ar1 core 0.000000 0.875009 0.124991 0.000000 1.000000 0.0 1 1 1
Ar1 core 0.000000 0.875009 0.250017 0.000000 1.000000 0.0 1 1 1
Ar1 core 0.000000 0.875009 0.375009 0.000000 1.000000 0.0 1 1 1
Ar1 core 0.000000 0.875009 0.500000 0.000000 1.000000 0.0 1 1 1
Ar1 core 0.000000 0.875009 0.624991 0.000000 1.000000 0.0 1 1 1
Ar1 core 0.000000 0.875009 0.750017 0.000000 1.000000 0.0 1 1 1
Ar1 core 0.000000 0.875009 0.875009 0.000000 1.000000 0.0 1 1 1
Ar1 core 0.124991 0.000000 0.000000 0.000000 1.000000 0.0 1 1 1
Ar1 core 0.124991 0.000000 0.124991 0.000000 1.000000 0.0 1 1 1
Ar1 core 0.124991 0.000000 0.250017 0.000000 1.000000 0.0 1 1 1
Ar1 core 0.124991 0.000000 0.375009 0.000000 1.000000 0.0 1 1 1
Ar1 core 0.124991 0.000000 0.500000 0.000000 1.000000 0.0 1 1 1
Ar1 core 0.124991 0.000000 0.624991 0.000000 1.000000 0.0 1 1 1
Ar1 core 0.124991 0.000000 0.750017 0.000000 1.000000 0.0 1 1 1
Ar1 core 0.124991 0.000000 0.875009 0.000000 1.000000 0.0 1 1 1
Ar1 core 0.124991 0.124991 0.000000 0.000000 1.000000 0.0 1 1 1
Ar1 core 0.124991 0.124991 0.124991 0.000000 1.000000 0.0 1 1 1
Ar1 core 0.124991 0.124991 0.250017 0.000000 1.000000 0.0 1 1 1
Ar1 core 0.124991 0.124991 0.375009 0.000000 1.000000 0.0 1 1 1
Ar1 core 0.124991 0.124991 0.500000 0.000000 1.000000 0.0 1 1 1
Ar1 core 0.124991 0.124991 0.624991 0.000000 1.000000 0.0 1 1 1
Ar1 core 0.124991 0.124991 0.750017 0.000000 1.000000 0.0 1 1 1
Ar1 core 0.124991 0.124991 0.875009 0.000000 1.000000 0.0 1 1 1
Ar1 core 0.124991 0.250017 0.000000 0.000000 1.000000 0.0 1 1 1
Ar1 core 0.124991 0.250017 0.124991 0.000000 1.000000 0.0 1 1 1
Ar1 core 0.124991 0.250017 0.250017 0.000000 1.000000 0.0 1 1 1
Ar1 core 0.124991 0.250017 0.375009 0.000000 1.000000 0.0 1 1 1
Ar1 core 0.124991 0.250017 0.500000 0.000000 1.000000 0.0 1 1 1
Ar1 core 0.124991 0.250017 0.624991 0.000000 1.000000 0.0 1 1 1
Ar1 core 0.124991 0.250017 0.750017 0.000000 1.000000 0.0 1 1 1
Ar1 core 0.124991 0.250017 0.875009 0.000000 1.000000 0.0 1 1 1
Ar1 core 0.124991 0.375009 0.000000 0.000000 1.000000 0.0 1 1 1
Ar1 core 0.124991 0.375009 0.124991 0.000000 1.000000 0.0 1 1 1
Ar1 core 0.124991 0.375009 0.250017 0.000000 1.000000 0.0 1 1 1
Ar1 core 0.124991 0.375009 0.375009 0.000000 1.000000 0.0 1 1 1
Ar1 core 0.124991 0.375009 0.500000 0.000000 1.000000 0.0 1 1 1
Ar1 core 0.124991 0.375009 0.624991 0.000000 1.000000 0.0 1 1 1
Ar1 core 0.124991 0.375009 0.750017 0.000000 1.000000 0.0 1 1 1
Ar1 core 0.124991 0.375009 0.875009 0.000000 1.000000 0.0 1 1 1
Ar1 core 0.124991 0.500000 0.000000 0.000000 1.000000 0.0 1 1 1
Ar1 core 0.124991 0.500000 0.124991 0.000000 1.000000 0.0 1 1 1
Ar1 core 0.124991 0.500000 0.250017 0.000000 1.000000 0.0 1 1 1
Ar1 core 0.124991 0.500000 0.375009 0.000000 1.000000 0.0 1 1 1
Ar1 core 0.124991 0.500000 0.500000 0.000000 1.000000 0.0 1 1 1
Ar1 core 0.124991 0.500000 0.624991 0.000000 1.000000 0.0 1 1 1
Ar1 core 0.124991 0.500000 0.750017 0.000000 1.000000 0.0 1 1 1
Ar1 core 0.124991 0.500000 0.875009 0.000000 1.000000 0.0 1 1 1
Ar1 core 0.124991 0.624991 0.000000 0.000000 1.000000 0.0 1 1 1
Ar1 core 0.124991 0.624991 0.124991 0.000000 1.000000 0.0 1 1 1
Ar1 core 0.124991 0.624991 0.250017 0.000000 1.000000 0.0 1 1 1
Ar1 core 0.124991 0.624991 0.375009 0.000000 1.000000 0.0 1 1 1
Ar1 core 0.124991 0.624991 0.500000 0.000000 1.000000 0.0 1 1 1
Ar1 core 0.124991 0.624991 0.624991 0.000000 1.000000 0.0 1 1 1
Ar1 core 0.124991 0.624991 0.750017 0.000000 1.000000 0.0 1 1 1
Ar1 core 0.124991 0.624991 0.875009 0.000000 1.000000 0.0 1 1 1
Ar1 core 0.124991 0.750017 0.000000 0.000000 1.000000 0.0 1 1 1
Ar1 core 0.124991 0.750017 0.124991 0.000000 1.000000 0.0 1 1 1
Ar1 core 0.124991 0.750017 0.250017 0.000000 1.000000 0.0 1 1 1
Ar1 core 0.124991 0.750017 0.375009 0.000000 1.000000 0.0 1 1 1
Ar1 core 0.124991 0.750017 0.500000 0.000000 1.000000 0.0 1 1 1
Ar1 core 0.124991 0.750017 0.624991 0.000000 1.000000 0.0 1 1 1
Ar1 core 0.124991 0.750017 0.750017 0.000000 1.000000 0.0 1 1 1
Ar1 core 0.124991 0.750017 0.875009 0.000000 1.000000 0.0 1 1 1
Ar1 core 0.124991 0.875009 0.000000 0.000000 1.000000 0.0 1 1 1
Ar1 core 0.124991 0.875009 0.124991 0.000000 1.000000 0.0 1 1 1
Ar1 core 0.124991 0.875009 0.250017 0.000000 1.000000 0.0 1 1 1
Ar1 core 0.124991 0.875009 0.375009 0.000000 1.000000 0.0 1 1 1
Ar1 core 0.124991 0.875009 0.500000 0.000000 1.000000 0.0 1 1 1
Ar1 core 0.124991 0.875009 0.624991 0.000000 1.000000 0.0 1 1 1
Ar1 core 0.124991 0.875009 0.750017 0.000000 1.000000 0.0 1 1 1
Ar1 core 0.124991 0.875009 0.875009 0.000000 1.000000 0.0 1 1 1
Ar1 core 0.250017 0.000000 0.000000 0.000000 1.000000 0.0 1 1 1
Ar1 core 0.250017 0.000000 0.124991 0.000000 1.000000 0.0 1 1 1
Ar1 core 0.250017 0.000000 0.250017 0.000000 1.000000 0.0 1 1 1
Ar1 core 0.250017 0.000000 0.375009 0.000000 1.000000 0.0 1 1 1
Ar1 core 0.250017 0.000000 0.500000 0.000000 1.000000 0.0 1 1 1
Ar1 core 0.250017 0.000000 0.624991 0.000000 1.000000 0.0 1 1 1
Ar1 core 0.250017 0.000000 0.750017 0.000000 1.000000 0.0 1 1 1
Ar1 core 0.250017 0.000000 0.875009 0.000000 1.000000 0.0 1 1 1
Ar1 core 0.250017 0.124991 0.000000 0.000000 1.000000 0.0 1 1 1
Ar1 core 0.250017 0.124991 0.124991 0.000000 1.000000 0.0 1 1 1
Ar1 core 0.250017 0.124991 0.250017 0.000000 1.000000 0.0 1 1 1
Ar1 core 0.250017 0.124991 0.375009 0.000000 1.000000 0.0 1 1 1
Ar1 core 0.250017 0.124991 0.500000 0.000000 1.000000 0.0 1 1 1
Ar1 core 0.250017 0.124991 0.624991 0.000000 1.000000 0.0 1 1 1
Ar1 core 0.250017 0.124991 0.750017 0.000000 1.000000 0.0 1 1 1
Ar1 core 0.250017 0.124991 0.875009 0.000000 1.000000 0.0 1 1 1
Ar1 core 0.250017 0.250017 0.000000 0.000000 1.000000 0.0 1 1 1
Ar1 core 0.250017 0.250017 0.124991 0.000000 1.000000 0.0 1 1 1
Ar1 core 0.250017 0.250017 0.250017 0.000000 1.000000 0.0 1 1 1
Ar1 core 0.250017 0.250017 0.375009 0.000000 1.000000 0.0 1 1 1
Ar1 core 0.250017 0.250017 0.500000 0.000000 1.000000 0.0 1 1 1
Ar1 core 0.250017 0.250017 0.624991 0.000000 1.000000 0.0 1 1 1
Ar1 core 0.250017 0.250017 0.750017 0.000000 1.000000 0.0 1 1 1
Ar1 core 0.250017 0.250017 0.875009 0.000000 1.000000 0.0 1 1 1
Ar1 core 0.250017 0.375009 0.000000 0.000000 1.000000 0.0 1 1 1
Ar1 core 0.250017 0.375009 0.124991 0.000000 1.000000 0.0 1 1 1
Ar1 core 0.250017 0.375009 0.250017 0.000000 1.000000 0.0 1 1 1
Ar1 core 0.250017 0.375009 0.375009 0.000000 1.000000 0.0 1 1 1
Ar1 core 0.250017 0.375009 0.500000 0.000000 1.000000 0.0 1 1 1
Ar1 core 0.250017 0.375009 0.624991 0.000000 1.000000 0.0 1 1 1
Ar1 core 0.250017 0.375009 0.750017 0.000000 1.000000 0.0 1 1 1
Ar1 core 0.250017 0.375009 0.875009 0.000000 1.000000 0.0 1 1 1
Ar1 core 0.250017 0.500000 0.000000 0.000000 1.000000 0.0 1 1 1
Ar1 core 0.250017 0.500000 0.124991 0.000000 1.000000 0.0 1 1 1
Ar1 core 0.250017 0.500000 0.250017 0.000000 1.000000 0.0 1 1 1
Ar1 core 0.250017 0.500000 0.375009 0.000000 1.000000 0.0 1 1 1
Ar1 core 0.250017 0.500000 0.500000 0.000000 1.000000 0.0 1 1 1
Ar1 core 0.250017 0.500000 0.624991 0.000000 1.000000 0.0 1 1 1
Ar1 core 0.250017 0.500000 0.750017 0.000000 1.000000 0.0 1 1 1
Ar1 core 0.250017 0.500000 0.875009 0.000000 1.000000 0.0 1 1 1
Ar1 core 0.250017 0.624991 0.000000 0.000000 1.000000 0.0 1 1 1
Ar1 core 0.250017 0.624991 0.124991 0.000000 1.000000 0.0 1 1 1
Ar1 core 0.250017 0.624991 0.250017 0.000000 1.000000 0.0 1 1 1
Ar1 core 0.250017 0.624991 0.375009 0.000000 1.000000 0.0 1 1 1
Ar1 core 0.250017 0.624991 0.500000 0.000000 1.000000 0.0 1 1 1
Ar1 core 0.250017 0.624991 0.624991 0.000000 1.000000 0.0 1 1 1
Ar1 core 0.250017 0.624991 0.750017 0.000000 1.000000 0.0 1 1 1
Ar1 core 0.250017 0.624991 0.875009 0.000000 1.000000 0.0 1 1 1
Ar1 core 0.250017 0.750017 0.000000 0.000000 1.000000 0.0 1 1 1
Ar1 core 0.250017 0.750017 0.124991 0.000000 1.000000 0.0 1 1 1
Ar1 core 0.250017 0.750017 0.250017 0.000000 1.000000 0.0 1 1 1
Ar1 core 0.250017 0.750017 0.375009 0.000000 1.000000 0.0 1 1 1
Ar1 core 0.250017 0.750017 0.500000 0.000000 1.000000 0.0 1 1 1
Ar1 core 0.250017 0.750017 0.624991 0.000000 1.000000 0.0 1 1 1
Ar1 core 0.250017 0.750017 0.750017 0.000000 1.000000 0.0 1 1 1
Ar1 core 0.250017 0.750017 0.875009 0.000000 1.000000 0.0 1 1 1
Ar1 core 0.250017 0.875009 0.000000 0.000000 1.000000 0.0 1 1 1
Ar1 core 0.250017 0.875009 0.124991 0.000000 1.000000 0.0 1 1 1
Ar1 core 0.250017 0.875009 0.250017 0.000000 1.000000 0.0 1 1 1
Ar1 core 0.250017 0.875009 0.375009 0.000000 1.000000 0.0 1 1 1
Ar1 core 0.250017 0.875009 0.500000 0.000000 1.000000 0.0 1 1 1
Ar1 core 0.250017 0.875009 0.624991 0.000000 1.000000 0.0 1 1 1
Ar1 core 0.250017 0.875009 0.750017 0.000000 1.000000 0.0 1 1 1
Ar1 core 0.250017 0.875009 0.875009 0.000000 1.000000 0.0 1 1 1
Ar1 core 0.375009 0.000000 0.000000 0.000000 1.000000 0.0 1 1 1
Ar1 core 0.375009 0.000000 0.124991 0.000000 1.000000 0.0 1 1 1
Ar1 core 0.375009 0.000000 0.250017 0.000000 1.000000 0.0 1 1 1
Ar1 core 0.375009 0.000000 0.375009 0.000000 1.000000 0.0 1 1 1
Ar1 core 0.375009 0.000000 0.500000 0.000000 1.000000 0.0 1 1 1
Ar1 core 0.375009 0.000000 0.624991 0.000000 1.000000 0.0 1 1 1
Ar1 core 0.375009 0.000000 0.750017 0.000000 1.000000 0.0 1 1 1
Ar1 core 0.375009 0.000000 0.875009 0.000000 1.000000 0.0 1 1 1
Ar1 core 0.375009 0.124991 0.000000 0.000000 1.000000 0.0 1 1 1
Ar1 core 0.375009 0.124991 0.124991 0.000000 1.000000 0.0 1 1 1
Ar1 core 0.375009 0.124991 0.250017 0.000000 1.000000 0.0 1 1 1
Ar1 core 0.375009 0.124991 0.375009 0.000000 1.000000 0.0 1 1 1
Ar1 core 0.375009 0.124991 0.500000 0.000000 1.000000 0.0 1 1 1
Ar1 core 0.375009 0.124991 0.624991 0.000000 1.000000 0.0 1 1 1
Ar1 core 0.375009 0.124991 0.750017 0.000000 1.000000 0.0 1 1 1
Ar1 core 0.375009 0.124991 0.875009 0.000000 1.000000 0.0 1 1 1
Ar1 core 0.375009 0.250017 0.000000 0.000000 1.000000 0.0 1 1 1
Ar1 core 0.375009 0.250017 0.124991 0.000000 1.000000 0.0 1 1 1
Ar1 core 0.375009 0.250017 0.250017 0.000000 1.000000 0.0 1 1 1
Ar1 core 0.375009 0.250017 0.375009 0.000000 1.000000 0.0 1 1 1
Ar1 core 0.375009 0.250017 0.500000 0.000000 1.000000 0.0 1 1 1
Ar1 core 0.375009 0.250017 0.624991 0.000000 1.000000 0.0 1 1 1
Ar1 core 0.375009 0.250017 0.750017 0.000000 1.000000 0.0 1 1 1
Ar1 core 0.375009 0.250017 0.875009 0.000000 1.000000 0.0 1 1 1
Ar1 core 0.375009 0.375009 0.000000 0.000000 1.000000 0.0 1 1 1
Ar1 core 0.375009 0.375009 0.124991 0.000000 1.000000 0.0 1 1 1
Ar1 core 0.375009 0.375009 0.250017 0.000000 1.000000 0.0 1 1 1
Ar1 core 0.375009 0.375009 0.375009 0.000000 1.000000 0.0 1 1 1
Ar1 core 0.375009 0.375009 0.500000 0.000000 1.000000 0.0 1 1 1
Ar1 core 0.375009 0.375009 0.624991 0.000000 1.000000 0.0 1 1 1
Ar1 core 0.375009 0.375009 0.750017 0.000000 1.000000 0.0 1 1 1
Ar1 core 0.375009 0.375009 0.875009 0.000000 1.000000 0.0 1 1 1
Ar1 core 0.375009 0.500000 0.000000 0.000000 1.000000 0.0 1 1 1
Ar1 core 0.375009 0.500000 0.124991 0.000000 1.000000 0.0 1 1 1
Ar1 core 0.375009 0.500000 0.250017 0.000000 1.000000 0.0 1 1 1
Ar1 core 0.375009 0.500000 0.375009 0.000000 1.000000 0.0 1 1 1
Ar1 core 0.375009 0.500000 0.500000 0.000000 1.000000 0.0 1 1 1
Ar1 core 0.375009 0.500000 0.624991 0.000000 1.000000 0.0 1 1 1
Ar1 core 0.375009 0.500000 0.750017 0.000000 1.000000 0.0 1 1 1
Ar1 core 0.375009 0.500000 0.875009 0.000000 1.000000 0.0 1 1 1
Ar1 core 0.375009 0.624991 0.000000 0.000000 1.000000 0.0 1 1 1
Ar1 core 0.375009 0.624991 0.124991 0.000000 1.000000 0.0 1 1 1
Ar1 core 0.375009 0.624991 0.250017 0.000000 1.000000 0.0 1 1 1
Ar1 core 0.375009 0.624991 0.375009 0.000000 1.000000 0.0 1 1 1
Ar1 core 0.375009 0.624991 0.500000 0.000000 1.000000 0.0 1 1 1
Ar1 core 0.375009 0.624991 0.624991 0.000000 1.000000 0.0 1 1 1
Ar1 core 0.375009 0.624991 0.750017 0.000000 1.000000 0.0 1 1 1
Ar1 core 0.375009 0.624991 0.875009 0.000000 1.000000 0.0 1 1 1
Ar1 core 0.375009 0.750017 0.000000 0.000000 1.000000 0.0 1 1 1
Ar1 core 0.375009 0.750017 0.124991 0.000000 1.000000 0.0 1 1 1
Ar1 core 0.375009 0.750017 0.250017 0.000000 1.000000 0.0 1 1 1
Ar1 core 0.375009 0.750017 0.375009 0.000000 1.000000 0.0 1 1 1
Ar1 core 0.375009 0.750017 0.500000 0.000000 1.000000 0.0 1 1 1
Ar1 core 0.375009 0.750017 0.624991 0.000000 1.000000 0.0 1 1 1
Ar1 core 0.375009 0.750017 0.750017 0.000000 1.000000 0.0 1 1 1
Ar1 core 0.375009 0.750017 0.875009 0.000000 1.000000 0.0 1 1 1
Ar1 core 0.375009 0.875009 0.000000 0.000000 1.000000 0.0 1 1 1
Ar1 core 0.375009 0.875009 0.124991 0.000000 1.000000 0.0 1 1 1
Ar1 core 0.375009 0.875009 0.250017 0.000000 1.000000 0.0 1 1 1
Ar1 core 0.375009 0.875009 0.375009 0.000000 1.000000 0.0 1 1 1
Ar1 core 0.375009 0.875009 0.500000 0.000000 1.000000 0.0 1 1 1
Ar1 core 0.375009 0.875009 0.624991 0.000000 1.000000 0.0 1 1 1
Ar1 core 0.375009 0.875009 0.750017 0.000000 1.000000 0.0 1 1 1
Ar1 core 0.375009 0.875009 0.875009 0.000000 1.000000 0.0 1 1 1
Ar1 core 0.500000 0.000000 0.000000 0.000000 1.000000 0.0 1 1 1
Ar1 core 0.500000 0.000000 0.124991 0.000000 1.000000 0.0 1 1 1
Ar1 core 0.500000 0.000000 0.250017 0.000000 1.000000 0.0 1 1 1
Ar1 core 0.500000 0.000000 0.375009 0.000000 1.000000 0.0 1 1 1
Ar1 core 0.500000 0.000000 0.500000 0.000000 1.000000 0.0 1 1 1
Ar1 core 0.500000 0.000000 0.624991 0.000000 1.000000 0.0 1 1 1
Ar1 core 0.500000 0.000000 0.750017 0.000000 1.000000 0.0 1 1 1
Ar1 core 0.500000 0.000000 0.875009 0.000000 1.000000 0.0 1 1 1
Ar1 core 0.500000 0.124991 0.000000 0.000000 1.000000 0.0 1 1 1
Ar1 core 0.500000 0.124991 0.124991 0.000000 1.000000 0.0 1 1 1
Ar1 core 0.500000 0.124991 0.250017 0.000000 1.000000 0.0 1 1 1
Ar1 core 0.500000 0.124991 0.375009 0.000000 1.000000 0.0 1 1 1
Ar1 core 0.500000 0.124991 0.500000 0.000000 1.000000 0.0 1 1 1
Ar1 core 0.500000 0.124991 0.624991 0.000000 1.000000 0.0 1 1 1
Ar1 core 0.500000 0.124991 0.750017 0.000000 1.000000 0.0 1 1 1
Ar1 core 0.500000 0.124991 0.875009 0.000000 1.000000 0.0 1 1 1
Ar1 core 0.500000 0.250017 0.000000 0.000000 1.000000 0.0 1 1 1
Ar1 core 0.500000 0.250017 0.124991 0.000000 1.000000 0.0 1 1 1
Ar1 core 0.500000 0.250017 0.250017 0.000000 1.000000 0.0 1 1 1
Ar1 core 0.500000 0.250017 0.375009 0.000000 1.000000 0.0 1 1 1
Ar1 core 0.500000 0.250017 0.500000 0.000000 1.000000 0.0 1 1 1
Ar1 core 0.500000 0.250017 0.624991 0.000000 1.000000 0.0 1 1 1
Ar1 core 0.500000 0.250017 0.750017 0.000000 1.000000 0.0 1 1 1
Ar1 core 0.500000 0.250017 0.875009 0.000000 1.000000 0.0 1 1 1
Ar1 core 0.500000 0.375009 0.000000 0.000000 1.000000 0.0 1 1 1
Ar1 core 0.500000 0.375009 0.124991 0.000000 1.000000 0.0 1 1 1
Ar1 core 0.500000 0.375009 0.250017 0.000000 1.000000 0.0 1 1 1
Ar1 core 0.500000 0.375009 0.375009 0.000000 1.000000 0.0 1 1 1
Ar1 core 0.500000 0.375009 0.500000 0.000000 1.000000 0.0 1 1 1
Ar1 core 0.500000 0.375009 0.624991 0.000000 1.000000 0.0 1 1 1
Ar1 core 0.500000 0.375009 0.750017 0.000000 1.000000 0.0 1 1 1
Ar1 core 0.500000 0.375009 0.875009 0.000000 1.000000 0.0 1 1 1
Ar1 core 0.500000 0.500000 0.000000 0.000000 1.000000 0.0 1 1 1
Ar1 core 0.500000 0.500000 0.124991 0.000000 1.000000 0.0 1 1 1
Ar1 core 0.500000 0.500000 0.250017 0.000000 1.000000 0.0 1 1 1
Ar1 core 0.500000 0.500000 0.375009 0.000000 1.000000 0.0 1 1 1
Ar1 core 0.500000 0.500000 0.500000 0.000000 1.000000 0.0 1 1 1
Ar1 core 0.500000 0.500000 0.624991 0.000000 1.000000 0.0 1 1 1
Ar1 core 0.500000 0.500000 0.750017 0.000000 1.000000 0.0 1 1 1
Ar1 core 0.500000 0.500000 0.875009 0.000000 1.000000 0.0 1 1 1
Ar1 core 0.500000 0.624991 0.000000 0.000000 1.000000 0.0 1 1 1
Ar1 core 0.500000 0.624991 0.124991 0.000000 1.000000 0.0 1 1 1
Ar1 core 0.500000 0.624991 0.250017 0.000000 1.000000 0.0 1 1 1
Ar1 core 0.500000 0.624991 0.375009 0.000000 1.000000 0.0 1 1 1
Ar1 core 0.500000 0.624991 0.500000 0.000000 1.000000 0.0 1 1 1
Ar1 core 0.500000 0.624991 0.624991 0.000000 1.000000 0.0 1 1 1
Ar1 core 0.500000 0.624991 0.750017 0.000000 1.000000 0.0 1 1 1
Ar1 core 0.500000 0.624991 0.875009 0.000000 1.000000 0.0 1 1 1
Ar1 core 0.500000 0.750017 0.000000 0.000000 1.000000 0.0 1 1 1
Ar1 core 0.500000 0.750017 0.124991 0.000000 1.000000 0.0 1 1 1
Ar1 core 0.500000 0.750017 0.250017 0.000000 1.000000 0.0 1 1 1
Ar1 core 0.500000 0.750017 0.375009 0.000000 1.000000 0.0 1 1 1
Ar1 core 0.500000 0.750017 0.500000 0.000000 1.000000 0.0 1 1 1
Ar1 core 0.500000 0.750017 0.624991 0.000000 1.000000 0.0 1 1 1
Ar1 core 0.500000 0.750017 0.750017 0.000000 1.000000 0.0 1 1 1
Ar1 core 0.500000 0.750017 0.875009 0.000000 1.000000 0.0 1 1 1
Ar1 core 0.500000 0.875009 0.000000 0.000000 1.000000 0.0 1 1 1
Ar1 core 0.500000 0.875009 0.124991 0.000000 1.000000 0.0 1 1 1
Ar1 core 0.500000 0.875009 0.250017 0.000000 1.000000 0.0 1 1 1
Ar1 core 0.500000 0.875009 0.375009 0.000000 1.000000 0.0 1 1 1
Ar1 core 0.500000 0.875009 0.500000 0.000000 1.000000 0.0 1 1 1
Ar1 core 0.500000 0.875009 0.624991 0.000000 1.000000 0.0 1 1 1
Ar1 core 0.500000 0.875009 0.750017 0.000000 1.000000 0.0 1 1 1
Ar1 core 0.500000 0.875009 0.875009 0.000000 1.000000 0.0 1 1 1
Ar1 core 0.624991 0.000000 0.000000 0.000000 1.000000 0.0 1 1 1
Ar1 core 0.624991 0.000000 0.124991 0.000000 1.000000 0.0 1 1 1
Ar1 core 0.624991 0.000000 0.250017 0.000000 1.000000 0.0 1 1 1
Ar1 core 0.624991 0.000000 0.375009 0.000000 1.000000 0.0 1 1 1
Ar1 core 0.624991 0.000000 0.500000 0.000000 1.000000 0.0 1 1 1
Ar1 core 0.624991 0.000000 0.624991 0.000000 1.000000 0.0 1 1 1
Ar1 core 0.624991 0.000000 0.750017 0.000000 1.000000 0.0 1 1 1
Ar1 core 0.624991 0.000000 0.875009 0.000000 1.000000 0.0 1 1 1
Ar1 core 0.624991 0.124991 0.000000 0.000000 1.000000 0.0 1 1 1
Ar1 core 0.624991 0.124991 0.124991 0.000000 1.000000 0.0 1 1 1
Ar1 core 0.624991 0.124991 0.250017 0.000000 1.000000 0.0 1 1 1
Ar1 core 0.624991 0.124991 0.375009 0.000000 1.000000 0.0 1 1 1
Ar1 core 0.624991 0.124991 0.500000 0.000000 1.000000 0.0 1 1 1
Ar1 core 0.624991 0.124991 0.624991 0.000000 1.000000 0.0 1 1 1
Ar1 core 0.624991 0.124991 0.750017 0.000000 1.000000 0.0 1 1 1
Ar1 core 0.624991 0.124991 0.875009 0.000000 1.000000 0.0 1 1 1
Ar1 core 0.624991 0.250017 0.000000 0.000000 1.000000 0.0 1 1 1
Ar1 core 0.624991 0.250017 0.124991 0.000000 1.000000 0.0 1 1 1
Ar1 core 0.624991 0.250017 0.250017 0.000000 1.000000 0.0 1 1 1
Ar1 core 0.624991 0.250017 0.375009 0.000000 1.000000 0.0 1 1 1
Ar1 core 0.624991 0.250017 0.500000 0.000000 1.000000 0.0 1 1 1
Ar1 core 0.624991 0.250017 0.624991 0.000000 1.000000 0.0 1 1 1
Ar1 core 0.624991 0.250017 0.750017 0.000000 1.000000 0.0 1 1 1
Ar1 core 0.624991 0.250017 0.875009 0.000000 1.000000 0.0 1 1 1
Ar1 core 0.624991 0.375009 0.000000 0.000000 1.000000 0.0 1 1 1
Ar1 core 0.624991 0.375009 0.124991 0.000000 1.000000 0.0 1 1 1
Ar1 core 0.624991 0.375009 0.250017 0.000000 1.000000 0.0 1 1 1
Ar1 core 0.624991 0.375009 0.375009 0.000000 1.000000 0.0 1 1 1
Ar1 core 0.624991 0.375009 0.500000 0.000000 1.000000 0.0 1 1 1
Ar1 core 0.624991 0.375009 0.624991 0.000000 1.000000 0.0 1 1 1
Ar1 core 0.624991 0.375009 0.750017 0.000000 1.000000 0.0 1 1 1
Ar1 core 0.624991 0.375009 0.875009 0.000000 1.000000 0.0 1 1 1
Ar1 core 0.624991 0.500000 0.000000 0.000000 1.000000 0.0 1 1 1
Ar1 core 0.624991 0.500000 0.124991 0.000000 1.000000 0.0 1 1 1
Ar1 core 0.624991 0.500000 0.250017 0.000000 1.000000 0.0 1 1 1
Ar1 core 0.624991 0.500000 0.375009 0.000000 1.000000 0.0 1 1 1
Ar1 core 0.624991 0.500000 0.500000 0.000000 1.000000 0.0 1 1 1
Ar1 core 0.624991 0.500000 0.624991 0.000000 1.000000 0.0 1 1 1
Ar1 core 0.624991 0.500000 0.750017 0.000000 1.000000 0.0 1 1 1
Ar1 core 0.624991 0.500000 0.875009 0.000000 1.000000 0.0 1 1 1
Ar1 core 0.624991 0.624991 0.000000 0.000000 1.000000 0.0 1 1 1
Ar1 core 0.624991 0.624991 0.124991 0.000000 1.000000 0.0 1 1 1
Ar1 core 0.624991 0.624991 0.250017 0.000000 1.000000 0.0 1 1 1
Ar1 core 0.624991 0.624991 0.375009 0.000000 1.000000 0.0 1 1 1
Ar1 core 0.624991 0.624991 0.500000 0.000000 1.000000 0.0 1 1 1
Ar1 core 0.624991 0.624991 0.624991 0.000000 1.000000 0.0 1 1 1
Ar1 core 0.624991 0.624991 0.750017 0.000000 1.000000 0.0 1 1 1
Ar1 core 0.624991 0.624991 0.875009 0.000000 1.000000 0.0 1 1 1
Ar1 core 0.624991 0.750017 0.000000 0.000000 1.000000 0.0 1 1 1
Ar1 core 0.624991 0.750017 0.124991 0.000000 1.000000 0.0 1 1 1
Ar1 core 0.624991 0.750017 0.250017 0.000000 1.000000 0.0 1 1 1
Ar1 core 0.624991 0.750017 0.375009 0.000000 1.000000 0.0 1 1 1
Ar1 core 0.624991 0.750017 0.500000 0.000000 1.000000 0.0 1 1 1
Ar1 core 0.624991 0.750017 0.624991 0.000000 1.000000 0.0 1 1 1
Ar1 core 0.624991 0.750017 0.750017 0.000000 1.000000 0.0 1 1 1
Ar1 core 0.624991 0.750017 0.875009 0.000000 1.000000 0.0 1 1 1
Ar1 core 0.624991 0.875009 0.000000 0.000000 1.000000 0.0 1 1 1
Ar1 core 0.624991 0.875009 0.124991 0.000000 1.000000 0.0 1 1 1
Ar1 core 0.624991 0.875009 0.250017 0.000000 1.000000 0.0 1 1 1
Ar1 core 0.624991 0.875009 0.375009 0.000000 1.000000 0.0 1 1 1
Ar1 core 0.624991 0.875009 0.500000 0.000000 1.000000 0.0 1 1 1
Ar1 core 0.624991 0.875009 0.624991 0.000000 1.000000 0.0 1 1 1
Ar1 core 0.624991 0.875009 0.750017 0.000000 1.000000 0.0 1 1 1
Ar1 core 0.624991 0.875009 0.875009 0.000000 1.000000 0.0 1 1 1
Ar1 core 0.750017 0.000000 0.000000 0.000000 1.000000 0.0 1 1 1
Ar1 core 0.750017 0.000000 0.124991 0.000000 1.000000 0.0 1 1 1
Ar1 core 0.750017 0.000000 0.250017 0.000000 1.000000 0.0 1 1 1
Ar1 core 0.750017 0.000000 0.375009 0.000000 1.000000 0.0 1 1 1
Ar1 core 0.750017 0.000000 0.500000 0.000000 1.000000 0.0 1 1 1
Ar1 core 0.750017 0.000000 0.624991 0.000000 1.000000 0.0 1 1 1
Ar1 core 0.750017 0.000000 0.750017 0.000000 1.000000 0.0 1 1 1
Ar1 core 0.750017 0.000000 0.875009 0.000000 1.000000 0.0 1 1 1
Ar1 core 0.750017 0.124991 0.000000 0.000000 1.000000 0.0 1 1 1
Ar1 core 0.750017 0.124991 0.124991 0.000000 1.000000 0.0 1 1 1
Ar1 core 0.750017 0.124991 0.250017 0.000000 1.000000 0.0 1 1 1
Ar1 core 0.750017 0.124991 0.375009 0.000000 1.000000 0.0 1 1 1
Ar1 core 0.750017 0.124991 0.500000 0.000000 1.000000 0.0 1 1 1
Ar1 core 0.750017 0.124991 0.624991 0.000000 1.000000 0.0 1 1 1
Ar1 core 0.750017 0.124991 0.750017 0.000000 1.000000 0.0 1 1 1
Ar1 core 0.750017 0.124991 0.875009 0.000000 1.000000 0.0 1 1 1
Ar1 core 0.750017 0.250017 0.000000 0.000000 1.000000 0.0 1 1 1
Ar1 core 0.750017 0.250017 0.124991 0.000000 1.000000 0.0 1 1 1
Ar1 core 0.750017 0.250017 0.250017 0.000000 1.000000 0.0 1 1 1
Ar1 core 0.750017 0.250017 0.375009 0.000000 1.000000 0.0 1 1 1
Ar1 core 0.750017 0.250017 0.500000 0.000000 1.000000 0.0 1 1 1
Ar1 core 0.750017 0.250017 0.624991 0.000000 1.000000 0.0 1 1 1
Ar1 core 0.750017 0.250017 0.750017 0.000000 1.000000 0.0 1 1 1
Ar1 core 0.750017 0.250017 0.875009 0.000000 1.000000 0.0 1 1 1
Ar1 core 0.750017 0.375009 0.000000 0.000000 1.000000 0.0 1 1 1
Ar1 core 0.750017 0.375009 0.124991 0.000000 1.000000 0.0 1 1 1
Ar1 core 0.750017 0.375009 0.250017 0.000000 1.000000 0.0 1 1 1
Ar1 core 0.750017 0.375009 0.375009 0.000000 1.000000 0.0 1 1 1
Ar1 core 0.750017 0.375009 0.500000 0.000000 1.000000 0.0 1 1 1
Ar1 core 0.750017 0.375009 0.624991 0.000000 1.000000 0.0 1 1 1
Ar1 core 0.750017 0.375009 0.750017 0.000000 1.000000 0.0 1 1 1
Ar1 core 0.750017 0.375009 0.875009 0.000000 1.000000 0.0 1 1 1
Ar1 core 0.750017 0.500000 0.000000 0.000000 1.000000 0.0 1 1 1
Ar1 core 0.750017 0.500000 0.124991 0.000000 1.000000 0.0 1 1 1
Ar1 core 0.750017 0.500000 0.250017 0.000000 1.000000 0.0 1 1 1
Ar1 core 0.750017 0.500000 0.375009 0.000000 1.000000 0.0 1 1 1
Ar1 core 0.750017 0.500000 0.500000 0.000000 1.000000 0.0 1 1 1
Ar1 core 0.750017 0.500000 0.624991 0.000000 1.000000 0.0 1 1 1
Ar1 core 0.750017 0.500000 0.750017 0.000000 1.000000 0.0 1 1 1
Ar1 core 0.750017 0.500000 0.875009 0.000000 1.000000 0.0 1 1 1
Ar1 core 0.750017 0.624991 0.000000 0.000000 1.000000 0.0 1 1 1
Ar1 core 0.750017 0.624991 0.124991 0.000000 1.000000 0.0 1 1 1
Ar1 core 0.750017 0.624991 0.250017 0.000000 1.000000 0.0 1 1 1
Ar1 core 0.750017 0.624991 0.375009 0.000000 1.000000 0.0 1 1 1
Ar1 core 0.750017 0.624991 0.500000 0.000000 1.000000 0.0 1 1 1
Ar1 core 0.750017 0.624991 0.624991 0.000000 1.000000 0.0 1 1 1
Ar1 core 0.750017 0.624991 0.750017 0.000000 1.000000 0.0 1 1 1
Ar1 core 0.750017 0.624991 0.875009 0.000000 1.000000 0.0 1 1 1
Ar1 core 0.750017 0.750017 0.000000 0.000000 1.000000 0.0 1 1 1
Ar1 core 0.750017 0.750017 0.124991 0.000000 1.000000 0.0 1 1 1
Ar1 core 0.750017 0.750017 0.250017 0.000000 1.000000 0.0 1 1 1
Ar1 core 0.750017 0.750017 0.375009 0.000000 1.000000 0.0 1 1 1
Ar1 core 0.750017 0.750017 0.500000 0.000000 1.000000 0.0 1 1 1
Ar1 core 0.750017 0.750017 0.624991 0.000000 1.000000 0.0 1 1 1
Ar1 core 0.750017 0.750017 0.750017 0.000000 1.000000 0.0 1 1 1
Ar1 core 0.750017 0.750017 0.875009 0.000000 1.000000 0.0 1 1 1
Ar1 core 0.750017 0.875009 0.000000 0.000000 1.000000 0.0 1 1 1
Ar1 core 0.750017 0.875009 0.124991 0.000000 1.000000 0.0 1 1 1
Ar1 core 0.750017 0.875009 0.250017 0.000000 1.000000 0.0 1 1 1
Ar1 core 0.750017 0.875009 0.375009 0.000000 1.000000 0.0 1 1 1
Ar1 core 0.750017 0.875009 0.500000 0.000000 1.000000 0.0 1 1 1
Ar1 core 0.750017 0.875009 0.624991 0.000000 1.000000 0.0 1 1 1
Ar1 core 0.750017 0.875009 0.750017 0.000000 1.000000 0.0 1 1 1
Ar1 core 0.750017 0.875009 0.875009 0.000000 1.000000 0.0 1 1 1
Ar1 core 0.875009 0.000000 0.000000 0.000000 1.000000 0.0 1 1 1
Ar1 core 0.875009 0.000000 0.124991 0.000000 1.000000 0.0 1 1 1
Ar1 core 0.875009 0.000000 0.250017 0.000000 1.000000 0.0 1 1 1
Ar1 core 0.875009 0.000000 0.375009 0.000000 1.000000 0.0 1 1 1
Ar1 core 0.875009 0.000000 0.500000 0.000000 1.000000 0.0 1 1 1
Ar1 core 0.875009 0.000000 0.624991 0.000000 1.000000 0.0 1 1 1
Ar1 core 0.875009 0.000000 0.750017 0.000000 1.000000 0.0 1 1 1
Ar1 core 0.875009 0.000000 0.875009 0.000000 1.000000 0.0 1 1 1
Ar1 core 0.875009 0.124991 0.000000 0.000000 1.000000 0.0 1 1 1
Ar1 core 0.875009 0.124991 0.124991 0.000000 1.000000 0.0 1 1 1
Ar1 core 0.875009 0.124991 0.250017 0.000000 1.000000 0.0 1 1 1
Ar1 core 0.875009 0.124991 0.375009 0.000000 1.000000 0.0 1 1 1
Ar1 core 0.875009 0.124991 0.500000 0.000000 1.000000 0.0 1 1 1
Ar1 core 0.875009 0.124991 0.624991 0.000000 1.000000 0.0 1 1 1
Ar1 core 0.875009 0.124991 0.750017 0.000000 1.000000 0.0 1 1 1