md conv conse qok nomod pres pot efg noauto
ensemble nve

temperature 60.000000 K

equilibration 1 ps
timestep 0.1 fs
production 5 ps
write 100
sample 100


title
GULP calculation from Materials Studio for Ar_rho=0.0207125_N=64_cubic_60
end


cell
14.565000 14.565000 14.565000 90.000000 90.000000 90.000000

fractional
Ar1 core 0.000000 0.000000 0.000000 0.000000 1.000000 0.0 1 1 1
Ar1 core 0.000000 0.000000 0.249983 0.000000 1.000000 0.0 1 1 1
Ar1 core 0.000000 0.000000 0.500034 0.000000 1.000000 0.0 1 1 1
Ar1 core 0.000000 0.000000 0.750017 0.000000 1.000000 0.0 1 1 1
Ar1 core 0.000000 0.249983 0.000000 0.000000 1.000000 0.0 1 1 1
Ar1 core 0.000000 0.249983 0.249983 0.000000 1.000000 0.0 1 1 1
Ar1 core 0.000000 0.249983 0.500034 0.000000 1.000000 0.0 1 1 1
Ar1 core 0.000000 0.249983 0.750017 0.000000 1.000000 0.0 1 1 1
Ar1 core 0.000000 0.500034 0.000000 0.000000 1.000000 0.0 1 1 1
Ar1 core 0.000000 0.500034 0.249983 0.000000 1.000000 0.0 1 1 1
Ar1 core 0.000000 0.500034 0.500034 0.000000 1.000000 0.0 1 1 1
Ar1 core 0.000000 0.500034 0.750017 0.000000 1.000000 0.0 1 1 1
Ar1 core 0.000000 0.750017 0.000000 0.000000 1.000000 0.0 1 1 1
Ar1 core 0.000000 0.750017 0.249983 0.000000 1.000000 0.0 1 1 1
Ar1 core 0.000000 0.750017 0.500034 0.000000 1.000000 0.0 1 1 1
Ar1 core 0.000000 0.750017 0.750017 0.000000 1.000000 0.0 1 1 1
Ar1 core 0.249983 0.000000 0.000000 0.000000 1.000000 0.0 1 1 1
Ar1 core 0.249983 0.000000 0.249983 0.000000 1.000000 0.0 1 1 1
Ar1 core 0.249983 0.000000 0.500034 0.000000 1.000000 0.0 1 1 1
Ar1 core 0.249983 0.000000 0.750017 0.000000 1.000000 0.0 1 1 1
Ar1 core 0.249983 0.249983 0.000000 0.000000 1.000000 0.0 1 1 1
Ar1 core 0.249983 0.249983 0.249983 0.000000 1.000000 0.0 1 1 1
Ar1 core 0.249983 0.249983 0.500034 0.000000 1.000000 0.0 1 1 1
Ar1 core 0.249983 0.249983 0.750017 0.000000 1.000000 0.0 1 1 1
Ar1 core 0.249983 0.500034 0.000000 0.000000 1.000000 0.0 1 1 1
Ar1 core 0.249983 0.500034 0.249983 0.000000 1.000000 0.0 1 1 1
Ar1 core 0.249983 0.500034 0.500034 0.000000 1.000000 0.0 1 1 1
Ar1 core 0.249983 0.500034 0.750017 0.000000 1.000000 0.0 1 1 1
Ar1 core 0.249983 0.750017 0.000000 0.000000 1.000000 0.0 1 1 1
Ar1 core 0.249983 0.750017 0.249983 0.000000 1.000000 0.0 1 1 1
Ar1 core 0.249983 0.750017 0.500034 0.000000 1.000000 0.0 1 1 1
Ar1 core 0.249983 0.750017 0.750017 0.000000 1.000000 0.0 1 1 1
Ar1 core 0.500034 0.000000 0.000000 0.000000 1.000000 0.0 1 1 1
Ar1 core 0.500034 0.000000 0.249983 0.000000 1.000000 0.0 1 1 1
Ar1 core 0.500034 0.000000 0.500034 0.000000 1.000000 0.0 1 1 1
Ar1 core 0.500034 0.000000 0.750017 0.000000 1.000000 0.0 1 1 1
Ar1 core 0.500034 0.249983 0.000000 0.000000 1.000000 0.0 1 1 1
Ar1 core 0.500034 0.249983 0.249983 0.000000 1.000000 0.0 1 1 1
Ar1 core 0.500034 0.249983 0.500034 0.000000 1.000000 0.0 1 1 1
Ar1 core 0.500034 0.249983 0.750017 0.000000 1.000000 0.0 1 1 1
Ar1 core 0.500034 0.500034 0.000000 0.000000 1.000000 0.0 1 1 1
Ar1 core 0.500034 0.500034 0.249983 0.000000 1.000000 0.0 1 1 1
Ar1 core 0.500034 0.500034 0.500034 0.000000 1.000000 0.0 1 1 1
Ar1 core 0.500034 0.500034 0.750017 0.000000 1.000000 0.0 1 1 1
Ar1 core 0.500034 0.750017 0.000000 0.000000 1.000000 0.0 1 1 1
Ar1 core 0.500034 0.750017 0.249983 0.000000 1.000000 0.0 1 1 1
Ar1 core 0.500034 0.750017 0.500034 0.000000 1.000000 0.0 1 1 1
Ar1 core 0.500034 0.750017 0.750017 0.000000 1.000000 0.0 1 1 1
Ar1 core 0.750017 0.000000 0.000000 0.000000 1.000000 0.0 1 1 1
Ar1 core 0.750017 0.000000 0.249983 0.000000 1.000000 0.0 1 1 1
Ar1 core 0.750017 0.000000 0.500034 0.000000 1.000000 0.0 1 1 1
Ar1 core 0.750017 0.000000 0.750017 0.000000 1.000000 0.0 1 1 1
Ar1 core 0.750017 0.249983 0.000000 0.000000 1.000000 0.0 1 1 1
Ar1 core 0.750017 0.249983 0.249983 0.000000 1.000000 0.0 1 1 1
Ar1 core 0.750017 0.249983 0.500034 0.000000 1.000000 0.0 1 1 1
Ar1 core 0.750017 0.249983 0.750017 0.000000 1.000000 0.0 1 1 1
Ar1 core 0.750017 0.500034 0.000000 0.000000 1.000000 0.0 1 1 1
Ar1 core 0.750017 0.500034 0.249983 0.000000 1.000000 0.0 1 1 1
Ar1 core 0.750017 0.500034 0.500034 0.000000 1.000000 0.0 1 1 1
Ar1 core 0.750017 0.500034 0.750017 0.000000 1.000000 0.0 1 1 1
Ar1 core 0.750017 0.750017 0.000000 0.000000 1.000000 0.0 1 1 1
Ar1 core 0.750017 0.750017 0.249983 0.000000 1.000000 0.0 1 1 1
Ar1 core 0.750017 0.750017 0.500034 0.000000 1.000000 0.0 1 1 1
Ar1 core 0.750017 0.750017 0.750017 0.000000 1.000000 0.0 1 1 1

Species
Ar1 core Ar4+4

spacegroup
P 1


library uff


output movie arc Ar_rho_0.0207125_N=64_cubic_60_TS=01
mdarchive Ar_rho_0.0207125_N=64_cubic_60_TS=01.arc
output trajectory Ar_rho_0.0207125_N=64_cubic_60_TS=01.trg
